c 0.011885643005371094 (encode time in sec)
p cnf 199 1048
1 2 3 4 0
1 2 -3 4 0
1 -2 3 4 0
1 -2 -3 4 0
-1 2 3 4 0
-1 2 -3 4 0
-1 -2 3 4 0
-1 -2 -3 4 0
5 6 7 8 0
5 6 -7 8 0
5 -6 7 8 0
5 -6 -7 8 0
-5 6 7 8 0
-5 6 -7 8 0
-5 -6 7 8 0
-5 -6 -7 8 0
9 10 11 12 0
9 10 -11 12 0
9 -10 11 12 0
9 -10 -11 12 0
-9 10 11 12 0
-9 10 -11 12 0
-9 -10 11 12 0
-9 -10 -11 12 0
13 14 15 1 2 3 5 6 7 17 0
13 14 15 1 2 3 5 6 -7 17 0
13 14 15 1 2 3 5 -6 7 16 0
13 14 15 1 2 3 5 -6 -7 18 0
13 14 15 1 2 3 -5 6 7 0
13 14 15 1 2 3 -5 6 -7 20 0
13 14 15 1 2 3 -5 -6 7 0
13 14 15 1 2 3 -5 -6 -7 0
13 14 15 1 2 -3 5 6 7 17 0
13 14 15 1 2 -3 5 6 -7 21 0
13 14 15 1 2 -3 5 -6 7 22 0
13 14 15 1 2 -3 5 -6 -7 0
13 14 15 1 2 -3 -5 6 7 0
13 14 15 1 2 -3 -5 6 -7 0
13 14 15 1 2 -3 -5 -6 7 0
13 14 15 1 2 -3 -5 -6 -7 0
13 14 15 1 -2 3 5 6 7 23 0
13 14 15 1 -2 3 5 6 -7 24 0
13 14 15 1 -2 3 5 -6 7 0
13 14 15 1 -2 3 5 -6 -7 0
13 14 15 1 -2 3 -5 6 7 0
13 14 15 1 -2 3 -5 6 -7 0
13 14 15 1 -2 3 -5 -6 7 0
13 14 15 1 -2 3 -5 -6 -7 0
13 14 15 1 -2 -3 5 6 7 23 0
13 14 15 1 -2 -3 5 6 -7 0
13 14 15 1 -2 -3 5 -6 7 0
13 14 15 1 -2 -3 5 -6 -7 0
13 14 15 1 -2 -3 -5 6 7 0
13 14 15 1 -2 -3 -5 6 -7 0
13 14 15 1 -2 -3 -5 -6 7 0
13 14 15 1 -2 -3 -5 -6 -7 0
13 14 15 -1 2 3 5 6 7 25 0
13 14 15 -1 2 3 5 6 -7 0
13 14 15 -1 2 3 5 -6 7 0
13 14 15 -1 2 3 5 -6 -7 0
13 14 15 -1 2 3 -5 6 7 0
13 14 15 -1 2 3 -5 6 -7 0
13 14 15 -1 2 3 -5 -6 7 0
13 14 15 -1 2 3 -5 -6 -7 0
13 14 15 -1 2 -3 5 6 7 38 0
13 14 15 -1 2 -3 5 6 -7 0
13 14 15 -1 2 -3 5 -6 7 0
13 14 15 -1 2 -3 5 -6 -7 0
13 14 15 -1 2 -3 -5 6 7 0
13 14 15 -1 2 -3 -5 6 -7 0
13 14 15 -1 2 -3 -5 -6 7 0
13 14 15 -1 2 -3 -5 -6 -7 0
13 14 15 -1 -2 3 5 6 7 26 0
13 14 15 -1 -2 3 5 6 -7 0
13 14 15 -1 -2 3 5 -6 7 0
13 14 15 -1 -2 3 5 -6 -7 0
13 14 15 -1 -2 3 -5 6 7 0
13 14 15 -1 -2 3 -5 6 -7 0
13 14 15 -1 -2 3 -5 -6 7 0
13 14 15 -1 -2 3 -5 -6 -7 0
13 14 15 -1 -2 -3 5 6 7 0
13 14 15 -1 -2 -3 5 6 -7 0
13 14 15 -1 -2 -3 5 -6 7 0
13 14 15 -1 -2 -3 5 -6 -7 0
13 14 15 -1 -2 -3 -5 6 7 0
13 14 15 -1 -2 -3 -5 6 -7 0
13 14 15 -1 -2 -3 -5 -6 7 0
13 14 15 -1 -2 -3 -5 -6 -7 0
13 14 -15 1 2 3 5 6 7 0
13 14 -15 1 2 3 5 6 -7 0
13 14 -15 1 2 3 5 -6 7 52 0
13 14 -15 1 2 3 5 -6 -7 18 0
13 14 -15 1 2 3 -5 6 7 21 0
13 14 -15 1 2 3 -5 6 -7 0
13 14 -15 1 2 3 -5 -6 7 43 0
13 14 -15 1 2 3 -5 -6 -7 0
13 14 -15 1 2 -3 5 6 7 0
13 14 -15 1 2 -3 5 6 -7 38 0
13 14 -15 1 2 -3 5 -6 7 31 0
13 14 -15 1 2 -3 5 -6 -7 47 0
13 14 -15 1 2 -3 -5 6 7 49 0
13 14 -15 1 2 -3 -5 6 -7 0
13 14 -15 1 2 -3 -5 -6 7 0
13 14 -15 1 2 -3 -5 -6 -7 0
13 14 -15 1 -2 3 5 6 7 27 0
13 14 -15 1 -2 3 5 6 -7 18 0
13 14 -15 1 -2 3 5 -6 7 42 0
13 14 -15 1 -2 3 5 -6 -7 42 0
13 14 -15 1 -2 3 -5 6 7 0
13 14 -15 1 -2 3 -5 6 -7 0
13 14 -15 1 -2 3 -5 -6 7 0
13 14 -15 1 -2 3 -5 -6 -7 0
13 14 -15 1 -2 -3 5 6 7 27 0
13 14 -15 1 -2 -3 5 6 -7 23 0
13 14 -15 1 -2 -3 5 -6 7 18 0
13 14 -15 1 -2 -3 5 -6 -7 0
13 14 -15 1 -2 -3 -5 6 7 0
13 14 -15 1 -2 -3 -5 6 -7 0
13 14 -15 1 -2 -3 -5 -6 7 0
13 14 -15 1 -2 -3 -5 -6 -7 0
13 14 -15 -1 2 3 5 6 7 54 0
13 14 -15 -1 2 3 5 6 -7 55 0
13 14 -15 -1 2 3 5 -6 7 42 0
13 14 -15 -1 2 3 5 -6 -7 0
13 14 -15 -1 2 3 -5 6 7 0
13 14 -15 -1 2 3 -5 6 -7 0
13 14 -15 -1 2 3 -5 -6 7 0
13 14 -15 -1 2 3 -5 -6 -7 0
13 14 -15 -1 2 -3 5 6 7 47 0
13 14 -15 -1 2 -3 5 6 -7 44 0
13 14 -15 -1 2 -3 5 -6 7 0
13 14 -15 -1 2 -3 5 -6 -7 0
13 14 -15 -1 2 -3 -5 6 7 0
13 14 -15 -1 2 -3 -5 6 -7 0
13 14 -15 -1 2 -3 -5 -6 7 0
13 14 -15 -1 2 -3 -5 -6 -7 0
13 14 -15 -1 -2 3 5 6 7 28 0
13 14 -15 -1 -2 3 5 6 -7 45 0
13 14 -15 -1 -2 3 5 -6 7 0
13 14 -15 -1 -2 3 5 -6 -7 0
13 14 -15 -1 -2 3 -5 6 7 0
13 14 -15 -1 -2 3 -5 6 -7 0
13 14 -15 -1 -2 3 -5 -6 7 0
13 14 -15 -1 -2 3 -5 -6 -7 0
13 14 -15 -1 -2 -3 5 6 7 45 0
13 14 -15 -1 -2 -3 5 6 -7 0
13 14 -15 -1 -2 -3 5 -6 7 0
13 14 -15 -1 -2 -3 5 -6 -7 0
13 14 -15 -1 -2 -3 -5 6 7 0
13 14 -15 -1 -2 -3 -5 6 -7 0
13 14 -15 -1 -2 -3 -5 -6 7 0
13 14 -15 -1 -2 -3 -5 -6 -7 0
13 -14 15 1 2 3 5 6 7 0
13 -14 15 1 2 3 5 6 -7 0
13 -14 15 1 2 3 5 -6 7 0
13 -14 15 1 2 3 5 -6 -7 42 0
13 -14 15 1 2 3 -5 6 7 47 0
13 -14 15 1 2 3 -5 6 -7 20 0
13 -14 15 1 2 3 -5 -6 7 43 0
13 -14 15 1 2 3 -5 -6 -7 0
13 -14 15 1 2 -3 5 6 7 0
13 -14 15 1 2 -3 5 6 -7 38 0
13 -14 15 1 2 -3 5 -6 7 0
13 -14 15 1 2 -3 5 -6 -7 21 0
13 -14 15 1 2 -3 -5 6 7 59 0
13 -14 15 1 2 -3 -5 6 -7 0
13 -14 15 1 2 -3 -5 -6 7 38 0
13 -14 15 1 2 -3 -5 -6 -7 0
13 -14 15 1 -2 3 5 6 7 0
13 -14 15 1 -2 3 5 6 -7 42 0
13 -14 15 1 -2 3 5 -6 7 39 0
13 -14 15 1 -2 3 5 -6 -7 20 0
13 -14 15 1 -2 3 -5 6 7 26 0
13 -14 15 1 -2 3 -5 6 -7 0
13 -14 15 1 -2 3 -5 -6 7 0
13 -14 15 1 -2 3 -5 -6 -7 0
13 -14 15 1 -2 -3 5 6 7 0
13 -14 15 1 -2 -3 5 6 -7 27 0
13 -14 15 1 -2 -3 5 -6 7 24 0
13 -14 15 1 -2 -3 5 -6 -7 29 0
13 -14 15 1 -2 -3 -5 6 7 35 0
13 -14 15 1 -2 -3 -5 6 -7 0
13 -14 15 1 -2 -3 -5 -6 7 0
13 -14 15 1 -2 -3 -5 -6 -7 0
13 -14 15 -1 2 3 5 6 7 0
13 -14 15 -1 2 3 5 6 -7 55 0
13 -14 15 -1 2 3 5 -6 7 24 0
13 -14 15 -1 2 3 5 -6 -7 18 0
13 -14 15 -1 2 3 -5 6 7 0
13 -14 15 -1 2 3 -5 6 -7 0
13 -14 15 -1 2 3 -5 -6 7 0
13 -14 15 -1 2 3 -5 -6 -7 0
13 -14 15 -1 2 -3 5 6 7 22 0
13 -14 15 -1 2 -3 5 6 -7 44 0
13 -14 15 -1 2 -3 5 -6 7 36 0
13 -14 15 -1 2 -3 5 -6 -7 0
13 -14 15 -1 2 -3 -5 6 7 0
13 -14 15 -1 2 -3 -5 6 -7 0
13 -14 15 -1 2 -3 -5 -6 7 0
13 -14 15 -1 2 -3 -5 -6 -7 0
13 -14 15 -1 -2 3 5 6 7 27 0
13 -14 15 -1 -2 3 5 6 -7 45 0
13 -14 15 -1 -2 3 5 -6 7 0
13 -14 15 -1 -2 3 5 -6 -7 0
13 -14 15 -1 -2 3 -5 6 7 0
13 -14 15 -1 -2 3 -5 6 -7 0
13 -14 15 -1 -2 3 -5 -6 7 0
13 -14 15 -1 -2 3 -5 -6 -7 0
13 -14 15 -1 -2 -3 5 6 7 45 0
13 -14 15 -1 -2 -3 5 6 -7 41 0
13 -14 15 -1 -2 -3 5 -6 7 0
13 -14 15 -1 -2 -3 5 -6 -7 0
13 -14 15 -1 -2 -3 -5 6 7 0
13 -14 15 -1 -2 -3 -5 6 -7 0
13 -14 15 -1 -2 -3 -5 -6 7 0
13 -14 15 -1 -2 -3 -5 -6 -7 0
13 -14 -15 1 2 3 5 6 7 0
13 -14 -15 1 2 3 5 6 -7 0
13 -14 -15 1 2 3 5 -6 7 0
13 -14 -15 1 2 3 5 -6 -7 42 0
13 -14 -15 1 2 3 -5 6 7 0
13 -14 -15 1 2 3 -5 6 -7 0
13 -14 -15 1 2 3 -5 -6 7 20 0
13 -14 -15 1 2 3 -5 -6 -7 49 0
13 -14 -15 1 2 -3 5 6 7 0
13 -14 -15 1 2 -3 5 6 -7 0
13 -14 -15 1 2 -3 5 -6 7 0
13 -14 -15 1 2 -3 5 -6 -7 0
13 -14 -15 1 2 -3 -5 6 7 46 0
13 -14 -15 1 2 -3 -5 6 -7 31 0
13 -14 -15 1 2 -3 -5 -6 7 38 0
13 -14 -15 1 2 -3 -5 -6 -7 0
13 -14 -15 1 -2 3 5 6 7 0
13 -14 -15 1 -2 3 5 6 -7 0
13 -14 -15 1 -2 3 5 -6 7 42 0
13 -14 -15 1 -2 3 5 -6 -7 27 0
13 -14 -15 1 -2 3 -5 6 7 20 0
13 -14 -15 1 -2 3 -5 6 -7 41 0
13 -14 -15 1 -2 3 -5 -6 7 0
13 -14 -15 1 -2 3 -5 -6 -7 0
13 -14 -15 1 -2 -3 5 6 7 0
13 -14 -15 1 -2 -3 5 6 -7 0
13 -14 -15 1 -2 -3 5 -6 7 42 0
13 -14 -15 1 -2 -3 5 -6 -7 29 0
13 -14 -15 1 -2 -3 -5 6 7 60 0
13 -14 -15 1 -2 -3 -5 6 -7 26 0
13 -14 -15 1 -2 -3 -5 -6 7 0
13 -14 -15 1 -2 -3 -5 -6 -7 0
13 -14 -15 -1 2 3 5 6 7 0
13 -14 -15 -1 2 3 5 6 -7 36 0
13 -14 -15 -1 2 3 5 -6 7 42 0
13 -14 -15 -1 2 3 5 -6 -7 0
13 -14 -15 -1 2 3 -5 6 7 27 0
13 -14 -15 -1 2 3 -5 6 -7 0
13 -14 -15 -1 2 3 -5 -6 7 0
13 -14 -15 -1 2 3 -5 -6 -7 0
13 -14 -15 -1 2 -3 5 6 7 38 0
13 -14 -15 -1 2 -3 5 6 -7 60 0
13 -14 -15 -1 2 -3 5 -6 7 55 0
13 -14 -15 -1 2 -3 5 -6 -7 26 0
13 -14 -15 -1 2 -3 -5 6 7 40 0
13 -14 -15 -1 2 -3 -5 6 -7 0
13 -14 -15 -1 2 -3 -5 -6 7 0
13 -14 -15 -1 2 -3 -5 -6 -7 0
13 -14 -15 -1 -2 3 5 6 7 0
13 -14 -15 -1 -2 3 5 6 -7 32 0
13 -14 -15 -1 -2 3 5 -6 7 0
13 -14 -15 -1 -2 3 5 -6 -7 18 0
13 -14 -15 -1 -2 3 -5 6 7 0
13 -14 -15 -1 -2 3 -5 6 -7 0
13 -14 -15 -1 -2 3 -5 -6 7 0
13 -14 -15 -1 -2 3 -5 -6 -7 0
13 -14 -15 -1 -2 -3 5 6 7 57 0
13 -14 -15 -1 -2 -3 5 6 -7 41 0
13 -14 -15 -1 -2 -3 5 -6 7 45 0
13 -14 -15 -1 -2 -3 5 -6 -7 0
13 -14 -15 -1 -2 -3 -5 6 7 0
13 -14 -15 -1 -2 -3 -5 6 -7 0
13 -14 -15 -1 -2 -3 -5 -6 7 0
13 -14 -15 -1 -2 -3 -5 -6 -7 0
-13 14 15 1 2 3 5 6 7 0
-13 14 15 1 2 3 5 6 -7 0
-13 14 15 1 2 3 5 -6 7 0
-13 14 15 1 2 3 5 -6 -7 0
-13 14 15 1 2 3 -5 6 7 0
-13 14 15 1 2 3 -5 6 -7 0
-13 14 15 1 2 3 -5 -6 7 41 0
-13 14 15 1 2 3 -5 -6 -7 49 0
-13 14 15 1 2 -3 5 6 7 0
-13 14 15 1 2 -3 5 6 -7 0
-13 14 15 1 2 -3 5 -6 7 0
-13 14 15 1 2 -3 5 -6 -7 0
-13 14 15 1 2 -3 -5 6 7 46 0
-13 14 15 1 2 -3 -5 6 -7 22 0
-13 14 15 1 2 -3 -5 -6 7 47 0
-13 14 15 1 2 -3 -5 -6 -7 0
-13 14 15 1 -2 3 5 6 7 0
-13 14 15 1 -2 3 5 6 -7 0
-13 14 15 1 -2 3 5 -6 7 0
-13 14 15 1 -2 3 5 -6 -7 37 0
-13 14 15 1 -2 3 -5 6 7 27 0
-13 14 15 1 -2 3 -5 6 -7 20 0
-13 14 15 1 -2 3 -5 -6 7 32 0
-13 14 15 1 -2 3 -5 -6 -7 0
-13 14 15 1 -2 -3 5 6 7 0
-13 14 15 1 -2 -3 5 6 -7 0
-13 14 15 1 -2 -3 5 -6 7 0
-13 14 15 1 -2 -3 5 -6 -7 27 0
-13 14 15 1 -2 -3 -5 6 7 54 0
-13 14 15 1 -2 -3 -5 6 -7 26 0
-13 14 15 1 -2 -3 -5 -6 7 18 0
-13 14 15 1 -2 -3 -5 -6 -7 0
-13 14 15 -1 2 3 5 6 7 0
-13 14 15 -1 2 3 5 6 -7 0
-13 14 15 -1 2 3 5 -6 7 42 0
-13 14 15 -1 2 3 5 -6 -7 24 0
-13 14 15 -1 2 3 -5 6 7 27 0
-13 14 15 -1 2 3 -5 6 -7 57 0
-13 14 15 -1 2 3 -5 -6 7 56 0
-13 14 15 -1 2 3 -5 -6 -7 0
-13 14 15 -1 2 -3 5 6 7 0
-13 14 15 -1 2 -3 5 6 -7 35 0
-13 14 15 -1 2 -3 5 -6 7 55 0
-13 14 15 -1 2 -3 5 -6 -7 23 0
-13 14 15 -1 2 -3 -5 6 7 0
-13 14 15 -1 2 -3 -5 6 -7 26 0
-13 14 15 -1 2 -3 -5 -6 7 0
-13 14 15 -1 2 -3 -5 -6 -7 0
-13 14 15 -1 -2 3 5 6 7 0
-13 14 15 -1 -2 3 5 6 -7 0
-13 14 15 -1 -2 3 5 -6 7 27 0
-13 14 15 -1 -2 3 5 -6 -7 18 0
-13 14 15 -1 -2 3 -5 6 7 35 0
-13 14 15 -1 -2 3 -5 6 -7 0
-13 14 15 -1 -2 3 -5 -6 7 0
-13 14 15 -1 -2 3 -5 -6 -7 0
-13 14 15 -1 -2 -3 5 6 7 0
-13 14 15 -1 -2 -3 5 6 -7 50 0
-13 14 15 -1 -2 -3 5 -6 7 57 0
-13 14 15 -1 -2 -3 5 -6 -7 0
-13 14 15 -1 -2 -3 -5 6 7 0
-13 14 15 -1 -2 -3 -5 6 -7 0
-13 14 15 -1 -2 -3 -5 -6 7 0
-13 14 15 -1 -2 -3 -5 -6 -7 0
-13 14 -15 1 2 3 5 6 7 0
-13 14 -15 1 2 3 5 6 -7 0
-13 14 -15 1 2 3 5 -6 7 0
-13 14 -15 1 2 3 5 -6 -7 0
-13 14 -15 1 2 3 -5 6 7 0
-13 14 -15 1 2 3 -5 6 -7 0
-13 14 -15 1 2 3 -5 -6 7 43 0
-13 14 -15 1 2 3 -5 -6 -7 46 0
-13 14 -15 1 2 -3 5 6 7 0
-13 14 -15 1 2 -3 5 6 -7 0
-13 14 -15 1 2 -3 5 -6 7 0
-13 14 -15 1 2 -3 5 -6 -7 0
-13 14 -15 1 2 -3 -5 6 7 0
-13 14 -15 1 2 -3 -5 6 -7 0
-13 14 -15 1 2 -3 -5 -6 7 22 0
-13 14 -15 1 2 -3 -5 -6 -7 27 0
-13 14 -15 1 -2 3 5 6 7 0
-13 14 -15 1 -2 3 5 6 -7 0
-13 14 -15 1 -2 3 5 -6 7 0
-13 14 -15 1 -2 3 5 -6 -7 0
-13 14 -15 1 -2 3 -5 6 7 26 0
-13 14 -15 1 -2 3 -5 6 -7 50 0
-13 14 -15 1 -2 3 -5 -6 7 57 0
-13 14 -15 1 -2 3 -5 -6 -7 54 0
-13 14 -15 1 -2 -3 5 6 7 0
-13 14 -15 1 -2 -3 5 6 -7 0
-13 14 -15 1 -2 -3 5 -6 7 0
-13 14 -15 1 -2 -3 5 -6 -7 0
-13 14 -15 1 -2 -3 -5 6 7 35 0
-13 14 -15 1 -2 -3 -5 6 -7 23 0
-13 14 -15 1 -2 -3 -5 -6 7 39 0
-13 14 -15 1 -2 -3 -5 -6 -7 0
-13 14 -15 -1 2 3 5 6 7 0
-13 14 -15 -1 2 3 5 6 -7 0
-13 14 -15 -1 2 3 5 -6 7 0
-13 14 -15 -1 2 3 5 -6 -7 42 0
-13 14 -15 -1 2 3 -5 6 7 20 0
-13 14 -15 -1 2 3 -5 6 -7 45 0
-13 14 -15 -1 2 3 -5 -6 7 51 0
-13 14 -15 -1 2 3 -5 -6 -7 40 0
-13 14 -15 -1 2 -3 5 6 7 0
-13 14 -15 -1 2 -3 5 6 -7 0
-13 14 -15 -1 2 -3 5 -6 7 0
-13 14 -15 -1 2 -3 5 -6 -7 26 0
-13 14 -15 -1 2 -3 -5 6 7 20 0
-13 14 -15 -1 2 -3 -5 6 -7 20 0
-13 14 -15 -1 2 -3 -5 -6 7 0
-13 14 -15 -1 2 -3 -5 -6 -7 0
-13 14 -15 -1 -2 3 5 6 7 0
-13 14 -15 -1 -2 3 5 6 -7 0
-13 14 -15 -1 -2 3 5 -6 7 23 0
-13 14 -15 -1 -2 3 5 -6 -7 18 0
-13 14 -15 -1 -2 3 -5 6 7 44 0
-13 14 -15 -1 -2 3 -5 6 -7 43 0
-13 14 -15 -1 -2 3 -5 -6 7 29 0
-13 14 -15 -1 -2 3 -5 -6 -7 0
-13 14 -15 -1 -2 -3 5 6 7 45 0
-13 14 -15 -1 -2 -3 5 6 -7 41 0
-13 14 -15 -1 -2 -3 5 -6 7 0
-13 14 -15 -1 -2 -3 5 -6 -7 47 0
-13 14 -15 -1 -2 -3 -5 6 7 0
-13 14 -15 -1 -2 -3 -5 6 -7 46 0
-13 14 -15 -1 -2 -3 -5 -6 7 0
-13 14 -15 -1 -2 -3 -5 -6 -7 0
-13 -14 15 1 2 3 5 6 7 0
-13 -14 15 1 2 3 5 6 -7 0
-13 -14 15 1 2 3 5 -6 7 0
-13 -14 15 1 2 3 5 -6 -7 0
-13 -14 15 1 2 3 -5 6 7 0
-13 -14 15 1 2 3 -5 6 -7 0
-13 -14 15 1 2 3 -5 -6 7 0
-13 -14 15 1 2 3 -5 -6 -7 46 0
-13 -14 15 1 2 -3 5 6 7 0
-13 -14 15 1 2 -3 5 6 -7 0
-13 -14 15 1 2 -3 5 -6 7 0
-13 -14 15 1 2 -3 5 -6 -7 0
-13 -14 15 1 2 -3 -5 6 7 0
-13 -14 15 1 2 -3 -5 6 -7 0
-13 -14 15 1 2 -3 -5 -6 7 0
-13 -14 15 1 2 -3 -5 -6 -7 23 0
-13 -14 15 1 -2 3 5 6 7 0
-13 -14 15 1 -2 3 5 6 -7 0
-13 -14 15 1 -2 3 5 -6 7 0
-13 -14 15 1 -2 3 5 -6 -7 0
-13 -14 15 1 -2 3 -5 6 7 0
-13 -14 15 1 -2 3 -5 6 -7 0
-13 -14 15 1 -2 3 -5 -6 7 0
-13 -14 15 1 -2 3 -5 -6 -7 0
-13 -14 15 1 -2 -3 5 6 7 0
-13 -14 15 1 -2 -3 5 6 -7 0
-13 -14 15 1 -2 -3 5 -6 7 0
-13 -14 15 1 -2 -3 5 -6 -7 0
-13 -14 15 1 -2 -3 -5 6 7 0
-13 -14 15 1 -2 -3 -5 6 -7 0
-13 -14 15 1 -2 -3 -5 -6 7 0
-13 -14 15 1 -2 -3 -5 -6 -7 22 0
-13 -14 15 -1 2 3 5 6 7 0
-13 -14 15 -1 2 3 5 6 -7 0
-13 -14 15 -1 2 3 5 -6 7 0
-13 -14 15 -1 2 3 5 -6 -7 0
-13 -14 15 -1 2 3 -5 6 7 0
-13 -14 15 -1 2 3 -5 6 -7 57 0
-13 -14 15 -1 2 3 -5 -6 7 33 0
-13 -14 15 -1 2 3 -5 -6 -7 0
-13 -14 15 -1 2 -3 5 6 7 0
-13 -14 15 -1 2 -3 5 6 -7 0
-13 -14 15 -1 2 -3 5 -6 7 0
-13 -14 15 -1 2 -3 5 -6 -7 0
-13 -14 15 -1 2 -3 -5 6 7 54 0
-13 -14 15 -1 2 -3 -5 6 -7 27 0
-13 -14 15 -1 2 -3 -5 -6 7 39 0
-13 -14 15 -1 2 -3 -5 -6 -7 45 0
-13 -14 15 -1 -2 3 5 6 7 0
-13 -14 15 -1 -2 3 5 6 -7 0
-13 -14 15 -1 -2 3 5 -6 7 0
-13 -14 15 -1 -2 3 5 -6 -7 0
-13 -14 15 -1 -2 3 -5 6 7 25 0
-13 -14 15 -1 -2 3 -5 6 -7 32 0
-13 -14 15 -1 -2 3 -5 -6 7 26 0
-13 -14 15 -1 -2 3 -5 -6 -7 43 0
-13 -14 15 -1 -2 -3 5 6 7 0
-13 -14 15 -1 -2 -3 5 6 -7 43 0
-13 -14 15 -1 -2 -3 5 -6 7 45 0
-13 -14 15 -1 -2 -3 5 -6 -7 31 0
-13 -14 15 -1 -2 -3 -5 6 7 21 0
-13 -14 15 -1 -2 -3 -5 6 -7 34 0
-13 -14 15 -1 -2 -3 -5 -6 7 26 0
-13 -14 15 -1 -2 -3 -5 -6 -7 0
-13 -14 -15 1 2 3 5 6 7 0
-13 -14 -15 1 2 3 5 6 -7 0
-13 -14 -15 1 2 3 5 -6 7 0
-13 -14 -15 1 2 3 5 -6 -7 0
-13 -14 -15 1 2 3 -5 6 7 0
-13 -14 -15 1 2 3 -5 6 -7 0
-13 -14 -15 1 2 3 -5 -6 7 0
-13 -14 -15 1 2 3 -5 -6 -7 46 0
-13 -14 -15 1 2 -3 5 6 7 0
-13 -14 -15 1 2 -3 5 6 -7 0
-13 -14 -15 1 2 -3 5 -6 7 0
-13 -14 -15 1 2 -3 5 -6 -7 0
-13 -14 -15 1 2 -3 -5 6 7 0
-13 -14 -15 1 2 -3 -5 6 -7 0
-13 -14 -15 1 2 -3 -5 -6 7 0
-13 -14 -15 1 2 -3 -5 -6 -7 0
-13 -14 -15 1 -2 3 5 6 7 0
-13 -14 -15 1 -2 3 5 6 -7 0
-13 -14 -15 1 -2 3 5 -6 7 0
-13 -14 -15 1 -2 3 5 -6 -7 0
-13 -14 -15 1 -2 3 -5 6 7 0
-13 -14 -15 1 -2 3 -5 6 -7 0
-13 -14 -15 1 -2 3 -5 -6 7 0
-13 -14 -15 1 -2 3 -5 -6 -7 25 0
-13 -14 -15 1 -2 -3 5 6 7 0
-13 -14 -15 1 -2 -3 5 6 -7 0
-13 -14 -15 1 -2 -3 5 -6 7 0
-13 -14 -15 1 -2 -3 5 -6 -7 0
-13 -14 -15 1 -2 -3 -5 6 7 0
-13 -14 -15 1 -2 -3 -5 6 -7 0
-13 -14 -15 1 -2 -3 -5 -6 7 0
-13 -14 -15 1 -2 -3 -5 -6 -7 31 0
-13 -14 -15 -1 2 3 5 6 7 0
-13 -14 -15 -1 2 3 5 6 -7 0
-13 -14 -15 -1 2 3 5 -6 7 0
-13 -14 -15 -1 2 3 5 -6 -7 0
-13 -14 -15 -1 2 3 -5 6 7 0
-13 -14 -15 -1 2 3 -5 6 -7 0
-13 -14 -15 -1 2 3 -5 -6 7 0
-13 -14 -15 -1 2 3 -5 -6 -7 53 0
-13 -14 -15 -1 2 -3 5 6 7 0
-13 -14 -15 -1 2 -3 5 6 -7 0
-13 -14 -15 -1 2 -3 5 -6 7 0
-13 -14 -15 -1 2 -3 5 -6 -7 0
-13 -14 -15 -1 2 -3 -5 6 7 0
-13 -14 -15 -1 2 -3 -5 6 -7 26 0
-13 -14 -15 -1 2 -3 -5 -6 7 18 0
-13 -14 -15 -1 2 -3 -5 -6 -7 48 0
-13 -14 -15 -1 -2 3 5 6 7 0
-13 -14 -15 -1 -2 3 5 6 -7 0
-13 -14 -15 -1 -2 3 5 -6 7 0
-13 -14 -15 -1 -2 3 5 -6 -7 0
-13 -14 -15 -1 -2 3 -5 6 7 0
-13 -14 -15 -1 -2 3 -5 6 -7 50 0
-13 -14 -15 -1 -2 3 -5 -6 7 20 0
-13 -14 -15 -1 -2 3 -5 -6 -7 58 0
-13 -14 -15 -1 -2 -3 5 6 7 0
-13 -14 -15 -1 -2 -3 5 6 -7 0
-13 -14 -15 -1 -2 -3 5 -6 7 45 0
-13 -14 -15 -1 -2 -3 5 -6 -7 38 0
-13 -14 -15 -1 -2 -3 -5 6 7 47 0
-13 -14 -15 -1 -2 -3 -5 6 -7 49 0
-13 -14 -15 -1 -2 -3 -5 -6 7 30 0
-13 -14 -15 -1 -2 -3 -5 -6 -7 17 0
61 62 63 9 10 11 13 14 15 64 0
61 62 63 9 10 11 13 14 -15 136 0
61 62 63 9 10 11 13 -14 15 98 0
61 62 63 9 10 11 13 -14 -15 161 0
61 62 63 9 10 11 -13 14 15 154 0
61 62 63 9 10 11 -13 14 -15 133 0
61 62 63 9 10 11 -13 -14 15 97 0
61 62 63 9 10 11 -13 -14 -15 72 0
61 62 63 9 10 -11 13 14 15 137 0
61 62 63 9 10 -11 13 14 -15 174 0
61 62 63 9 10 -11 13 -14 15 86 0
61 62 63 9 10 -11 13 -14 -15 123 0
61 62 63 9 10 -11 -13 14 15 185 0
61 62 63 9 10 -11 -13 14 -15 112 0
61 62 63 9 10 -11 -13 -14 15 150 0
61 62 63 9 10 -11 -13 -14 -15 78 0
61 62 63 9 -10 11 13 14 15 65 0
61 62 63 9 -10 11 13 14 -15 82 0
61 62 63 9 -10 11 13 -14 15 193 0
61 62 63 9 -10 11 13 -14 -15 191 0
61 62 63 9 -10 11 -13 14 15 162 0
61 62 63 9 -10 11 -13 14 -15 167 0
61 62 63 9 -10 11 -13 -14 15 96 0
61 62 63 9 -10 11 -13 -14 -15 162 0
61 62 63 9 -10 -11 13 14 15 66 0
61 62 63 9 -10 -11 13 14 -15 68 0
61 62 63 9 -10 -11 13 -14 15 79 0
61 62 63 9 -10 -11 13 -14 -15 167 0
61 62 63 9 -10 -11 -13 14 15 162 0
61 62 63 9 -10 -11 -13 14 -15 102 0
61 62 63 9 -10 -11 -13 -14 15 139 0
61 62 63 9 -10 -11 -13 -14 -15 87 0
61 62 63 -9 10 11 13 14 15 192 0
61 62 63 -9 10 11 13 14 -15 180 0
61 62 63 -9 10 11 13 -14 15 77 0
61 62 63 -9 10 11 13 -14 -15 168 0
61 62 63 -9 10 11 -13 14 15 180 0
61 62 63 -9 10 11 -13 14 -15 96 0
61 62 63 -9 10 11 -13 -14 15 115 0
61 62 63 -9 10 11 -13 -14 -15 169 0
61 62 63 -9 10 -11 13 14 15 145 0
61 62 63 -9 10 -11 13 14 -15 168 0
61 62 63 -9 10 -11 13 -14 15 101 0
61 62 63 -9 10 -11 13 -14 -15 171 0
61 62 63 -9 10 -11 -13 14 15 72 0
61 62 63 -9 10 -11 -13 14 -15 172 0
61 62 63 -9 10 -11 -13 -14 15 162 0
61 62 63 -9 10 -11 -13 -14 -15 181 0
61 62 63 -9 -10 11 13 14 15 100 0
61 62 63 -9 -10 11 13 14 -15 101 0
61 62 63 -9 -10 11 13 -14 15 140 0
61 62 63 -9 -10 11 13 -14 -15 86 0
61 62 63 -9 -10 11 -13 14 15 125 0
61 62 63 -9 -10 11 -13 14 -15 150 0
61 62 63 -9 -10 11 -13 -14 15 150 0
61 62 63 -9 -10 11 -13 -14 -15 155 0
61 62 63 -9 -10 -11 13 14 15 74 0
61 62 63 -9 -10 -11 13 14 -15 161 0
61 62 63 -9 -10 -11 13 -14 15 116 0
61 62 63 -9 -10 -11 13 -14 -15 180 0
61 62 63 -9 -10 -11 -13 14 15 185 0
61 62 63 -9 -10 -11 -13 14 -15 185 0
61 62 63 -9 -10 -11 -13 -14 15 78 0
61 62 63 -9 -10 -11 -13 -14 -15 157 0
61 62 -63 9 10 11 13 14 15 160 0
61 62 -63 9 10 11 13 14 -15 198 0
61 62 -63 9 10 11 13 -14 15 143 0
61 62 -63 9 10 11 13 -14 -15 74 0
61 62 -63 9 10 11 -13 14 15 154 0
61 62 -63 9 10 11 -13 14 -15 133 0
61 62 -63 9 10 11 -13 -14 15 97 0
61 62 -63 9 10 11 -13 -14 -15 72 0
61 62 -63 9 10 -11 13 14 15 117 0
61 62 -63 9 10 -11 13 14 -15 138 0
61 62 -63 9 10 -11 13 -14 15 67 0
61 62 -63 9 10 -11 13 -14 -15 123 0
61 62 -63 9 10 -11 -13 14 15 185 0
61 62 -63 9 10 -11 -13 14 -15 112 0
61 62 -63 9 10 -11 -13 -14 15 150 0
61 62 -63 9 10 -11 -13 -14 -15 78 0
61 62 -63 9 -10 11 13 14 15 130 0
61 62 -63 9 -10 11 13 14 -15 141 0
61 62 -63 9 -10 11 13 -14 15 193 0
61 62 -63 9 -10 11 13 -14 -15 191 0
61 62 -63 9 -10 11 -13 14 15 162 0
61 62 -63 9 -10 11 -13 14 -15 167 0
61 62 -63 9 -10 11 -13 -14 15 96 0
61 62 -63 9 -10 11 -13 -14 -15 162 0
61 62 -63 9 -10 -11 13 14 15 180 0
61 62 -63 9 -10 -11 13 14 -15 69 0
61 62 -63 9 -10 -11 13 -14 15 79 0
61 62 -63 9 -10 -11 13 -14 -15 167 0
61 62 -63 9 -10 -11 -13 14 15 162 0
61 62 -63 9 -10 -11 -13 14 -15 102 0
61 62 -63 9 -10 -11 -13 -14 15 139 0
61 62 -63 9 -10 -11 -13 -14 -15 87 0
61 62 -63 -9 10 11 13 14 15 156 0
61 62 -63 -9 10 11 13 14 -15 66 0
61 62 -63 -9 10 11 13 -14 15 151 0
61 62 -63 -9 10 11 13 -14 -15 168 0
61 62 -63 -9 10 11 -13 14 15 180 0
61 62 -63 -9 10 11 -13 14 -15 96 0
61 62 -63 -9 10 11 -13 -14 15 115 0
61 62 -63 -9 10 11 -13 -14 -15 169 0
61 62 -63 -9 10 -11 13 14 15 158 0
61 62 -63 -9 10 -11 13 14 -15 103 0
61 62 -63 -9 10 -11 13 -14 15 101 0
61 62 -63 -9 10 -11 13 -14 -15 171 0
61 62 -63 -9 10 -11 -13 14 15 72 0
61 62 -63 -9 10 -11 -13 14 -15 172 0
61 62 -63 -9 10 -11 -13 -14 15 162 0
61 62 -63 -9 10 -11 -13 -14 -15 181 0
61 62 -63 -9 -10 11 13 14 15 71 0
61 62 -63 -9 -10 11 13 14 -15 101 0
61 62 -63 -9 -10 11 13 -14 15 140 0
61 62 -63 -9 -10 11 13 -14 -15 86 0
61 62 -63 -9 -10 11 -13 14 15 125 0
61 62 -63 -9 -10 11 -13 14 -15 150 0
61 62 -63 -9 -10 11 -13 -14 15 150 0
61 62 -63 -9 -10 11 -13 -14 -15 155 0
61 62 -63 -9 -10 -11 13 14 15 104 0
61 62 -63 -9 -10 -11 13 14 -15 161 0
61 62 -63 -9 -10 -11 13 -14 15 116 0
61 62 -63 -9 -10 -11 13 -14 -15 180 0
61 62 -63 -9 -10 -11 -13 14 15 185 0
61 62 -63 -9 -10 -11 -13 14 -15 185 0
61 62 -63 -9 -10 -11 -13 -14 15 78 0
61 62 -63 -9 -10 -11 -13 -14 -15 157 0
61 -62 63 9 10 11 13 14 15 160 0
61 -62 63 9 10 11 13 14 -15 120 0
61 -62 63 9 10 11 13 -14 15 142 0
61 -62 63 9 10 11 13 -14 -15 104 0
61 -62 63 9 10 11 -13 14 15 131 0
61 -62 63 9 10 11 -13 14 -15 133 0
61 -62 63 9 10 11 -13 -14 15 97 0
61 -62 63 9 10 11 -13 -14 -15 72 0
61 -62 63 9 10 -11 13 14 15 120 0
61 -62 63 9 10 -11 13 14 -15 191 0
61 -62 63 9 10 -11 13 -14 15 175 0
61 -62 63 9 10 -11 13 -14 -15 144 0
61 -62 63 9 10 -11 -13 14 15 146 0
61 -62 63 9 10 -11 -13 14 -15 112 0
61 -62 63 9 10 -11 -13 -14 15 150 0
61 -62 63 9 10 -11 -13 -14 -15 78 0
61 -62 63 9 -10 11 13 14 15 130 0
61 -62 63 9 -10 11 13 14 -15 82 0
61 -62 63 9 -10 11 13 -14 15 73 0
61 -62 63 9 -10 11 13 -14 -15 170 0
61 -62 63 9 -10 11 -13 14 15 162 0
61 -62 63 9 -10 11 -13 14 -15 167 0
61 -62 63 9 -10 11 -13 -14 15 96 0
61 -62 63 9 -10 11 -13 -14 -15 162 0
61 -62 63 9 -10 -11 13 14 15 180 0
61 -62 63 9 -10 -11 13 14 -15 68 0
61 -62 63 9 -10 -11 13 -14 15 196 0
61 -62 63 9 -10 -11 13 -14 -15 167 0
61 -62 63 9 -10 -11 -13 14 15 162 0
61 -62 63 9 -10 -11 -13 14 -15 102 0
61 -62 63 9 -10 -11 -13 -14 15 139 0
61 -62 63 9 -10 -11 -13 -14 -15 87 0
61 -62 63 -9 10 11 13 14 15 156 0
61 -62 63 -9 10 11 13 14 -15 180 0
61 -62 63 -9 10 11 13 -14 15 70 0
61 -62 63 -9 10 11 13 -14 -15 88 0
61 -62 63 -9 10 11 -13 14 15 180 0
61 -62 63 -9 10 11 -13 14 -15 96 0
61 -62 63 -9 10 11 -13 -14 15 115 0
61 -62 63 -9 10 11 -13 -14 -15 169 0
61 -62 63 -9 10 -11 13 14 15 161 0
61 -62 63 -9 10 -11 13 14 -15 103 0
61 -62 63 -9 10 -11 13 -14 15 194 0
61 -62 63 -9 10 -11 13 -14 -15 171 0
61 -62 63 -9 10 -11 -13 14 15 72 0
61 -62 63 -9 10 -11 -13 14 -15 172 0
61 -62 63 -9 10 -11 -13 -14 15 162 0
61 -62 63 -9 10 -11 -13 -14 -15 181 0
61 -62 63 -9 -10 11 13 14 15 83 0
61 -62 63 -9 -10 11 13 14 -15 194 0
61 -62 63 -9 -10 11 13 -14 15 134 0
61 -62 63 -9 -10 11 13 -14 -15 86 0
61 -62 63 -9 -10 11 -13 14 15 125 0
61 -62 63 -9 -10 11 -13 14 -15 150 0
61 -62 63 -9 -10 11 -13 -14 15 150 0
61 -62 63 -9 -10 11 -13 -14 -15 155 0
61 -62 63 -9 -10 -11 13 14 15 161 0
61 -62 63 -9 -10 -11 13 14 -15 104 0
61 -62 63 -9 -10 -11 13 -14 15 82 0
61 -62 63 -9 -10 -11 13 -14 -15 180 0
61 -62 63 -9 -10 -11 -13 14 15 185 0
61 -62 63 -9 -10 -11 -13 14 -15 185 0
61 -62 63 -9 -10 -11 -13 -14 15 78 0
61 -62 63 -9 -10 -11 -13 -14 -15 157 0
61 -62 -63 9 10 11 13 14 15 160 0
61 -62 -63 9 10 11 13 14 -15 120 0
61 -62 -63 9 10 11 13 -14 15 98 0
61 -62 -63 9 10 11 13 -14 -15 161 0
61 -62 -63 9 10 11 -13 14 15 154 0
61 -62 -63 9 10 11 -13 14 -15 166 0
61 -62 -63 9 10 11 -13 -14 15 97 0
61 -62 -63 9 10 11 -13 -14 -15 72 0
61 -62 -63 9 10 -11 13 14 15 120 0
61 -62 -63 9 10 -11 13 14 -15 191 0
61 -62 -63 9 10 -11 13 -14 15 86 0
61 -62 -63 9 10 -11 13 -14 -15 123 0
61 -62 -63 9 10 -11 -13 14 15 122 0
61 -62 -63 9 10 -11 -13 14 -15 124 0
61 -62 -63 9 10 -11 -13 -14 15 150 0
61 -62 -63 9 10 -11 -13 -14 -15 78 0
61 -62 -63 9 -10 11 13 14 15 130 0
61 -62 -63 9 -10 11 13 14 -15 116 0
61 -62 -63 9 -10 11 13 -14 15 193 0
61 -62 -63 9 -10 11 13 -14 -15 148 0
61 -62 -63 9 -10 11 -13 14 15 163 0
61 -62 -63 9 -10 11 -13 14 -15 167 0
61 -62 -63 9 -10 11 -13 -14 15 96 0
61 -62 -63 9 -10 11 -13 -14 -15 162 0
61 -62 -63 9 -10 -11 13 14 15 180 0
61 -62 -63 9 -10 -11 13 14 -15 68 0
61 -62 -63 9 -10 -11 13 -14 15 186 0
61 -62 -63 9 -10 -11 13 -14 -15 184 0
61 -62 -63 9 -10 -11 -13 14 15 163 0
61 -62 -63 9 -10 -11 -13 14 -15 102 0
61 -62 -63 9 -10 -11 -13 -14 15 139 0
61 -62 -63 9 -10 -11 -13 -14 -15 87 0
61 -62 -63 -9 10 11 13 14 15 156 0
61 -62 -63 -9 10 11 13 14 -15 180 0
61 -62 -63 -9 10 11 13 -14 15 105 0
61 -62 -63 -9 10 11 13 -14 -15 183 0
61 -62 -63 -9 10 11 -13 14 15 180 0
61 -62 -63 -9 10 11 -13 14 -15 96 0
61 -62 -63 -9 10 11 -13 -14 15 115 0
61 -62 -63 -9 10 11 -13 -14 -15 169 0
61 -62 -63 -9 10 -11 13 14 15 161 0
61 -62 -63 -9 10 -11 13 14 -15 168 0
61 -62 -63 -9 10 -11 13 -14 15 101 0
61 -62 -63 -9 10 -11 13 -14 -15 149 0
61 -62 -63 -9 10 -11 -13 14 15 99 0
61 -62 -63 -9 10 -11 -13 14 -15 172 0
61 -62 -63 -9 10 -11 -13 -14 15 162 0
61 -62 -63 -9 10 -11 -13 -14 -15 181 0
61 -62 -63 -9 -10 11 13 14 15 83 0
61 -62 -63 -9 -10 11 13 14 -15 101 0
61 -62 -63 -9 -10 11 13 -14 15 106 0
61 -62 -63 -9 -10 11 13 -14 -15 113 0
61 -62 -63 -9 -10 11 -13 14 15 125 0
61 -62 -63 -9 -10 11 -13 14 -15 150 0
61 -62 -63 -9 -10 11 -13 -14 15 150 0
61 -62 -63 -9 -10 11 -13 -14 -15 155 0
61 -62 -63 -9 -10 -11 13 14 15 161 0
61 -62 -63 -9 -10 -11 13 14 -15 74 0
61 -62 -63 -9 -10 -11 13 -14 15 107 0
61 -62 -63 -9 -10 -11 13 -14 -15 180 0
61 -62 -63 -9 -10 -11 -13 14 15 185 0
61 -62 -63 -9 -10 -11 -13 14 -15 185 0
61 -62 -63 -9 -10 -11 -13 -14 15 78 0
61 -62 -63 -9 -10 -11 -13 -14 -15 157 0
-61 62 63 9 10 11 13 14 15 160 0
-61 62 63 9 10 11 13 14 -15 120 0
-61 62 63 9 10 11 13 -14 15 98 0
-61 62 63 9 10 11 13 -14 -15 161 0
-61 62 63 9 10 11 -13 14 15 154 0
-61 62 63 9 10 11 -13 14 -15 89 0
-61 62 63 9 10 11 -13 -14 15 97 0
-61 62 63 9 10 11 -13 -14 -15 72 0
-61 62 63 9 10 -11 13 14 15 120 0
-61 62 63 9 10 -11 13 14 -15 191 0
-61 62 63 9 10 -11 13 -14 15 86 0
-61 62 63 9 10 -11 13 -14 -15 123 0
-61 62 63 9 10 -11 -13 14 15 176 0
-61 62 63 9 10 -11 -13 14 -15 108 0
-61 62 63 9 10 -11 -13 -14 15 150 0
-61 62 63 9 10 -11 -13 -14 -15 78 0
-61 62 63 9 -10 11 13 14 15 130 0
-61 62 63 9 -10 11 13 14 -15 116 0
-61 62 63 9 -10 11 13 -14 15 193 0
-61 62 63 9 -10 11 13 -14 -15 191 0
-61 62 63 9 -10 11 -13 14 15 135 0
-61 62 63 9 -10 11 -13 14 -15 184 0
-61 62 63 9 -10 11 -13 -14 15 96 0
-61 62 63 9 -10 11 -13 -14 -15 162 0
-61 62 63 9 -10 -11 13 14 15 180 0
-61 62 63 9 -10 -11 13 14 -15 68 0
-61 62 63 9 -10 -11 13 -14 15 79 0
-61 62 63 9 -10 -11 13 -14 -15 189 0
-61 62 63 9 -10 -11 -13 14 15 135 0
-61 62 63 9 -10 -11 -13 14 -15 90 0
-61 62 63 9 -10 -11 -13 -14 15 139 0
-61 62 63 9 -10 -11 -13 -14 -15 87 0
-61 62 63 -9 10 11 13 14 15 156 0
-61 62 63 -9 10 11 13 14 -15 180 0
-61 62 63 -9 10 11 13 -14 15 77 0
-61 62 63 -9 10 11 13 -14 -15 168 0
-61 62 63 -9 10 11 -13 14 15 165 0
-61 62 63 -9 10 11 -13 14 -15 195 0
-61 62 63 -9 10 11 -13 -14 15 115 0
-61 62 63 -9 10 11 -13 -14 -15 169 0
-61 62 63 -9 10 -11 13 14 15 161 0
-61 62 63 -9 10 -11 13 14 -15 168 0
-61 62 63 -9 10 -11 13 -14 15 101 0
-61 62 63 -9 10 -11 13 -14 -15 188 0
-61 62 63 -9 10 -11 -13 14 15 93 0
-61 62 63 -9 10 -11 -13 14 -15 172 0
-61 62 63 -9 10 -11 -13 -14 15 162 0
-61 62 63 -9 10 -11 -13 -14 -15 181 0
-61 62 63 -9 -10 11 13 14 15 83 0
-61 62 63 -9 -10 11 13 14 -15 101 0
-61 62 63 -9 -10 11 13 -14 15 152 0
-61 62 63 -9 -10 11 13 -14 -15 84 0
-61 62 63 -9 -10 11 -13 14 15 109 0
-61 62 63 -9 -10 11 -13 14 -15 150 0
-61 62 63 -9 -10 11 -13 -14 15 150 0
-61 62 63 -9 -10 11 -13 -14 -15 155 0
-61 62 63 -9 -10 -11 13 14 15 161 0
-61 62 63 -9 -10 -11 13 14 -15 161 0
-61 62 63 -9 -10 -11 13 -14 15 153 0
-61 62 63 -9 -10 -11 13 -14 -15 165 0
-61 62 63 -9 -10 -11 -13 14 15 176 0
-61 62 63 -9 -10 -11 -13 14 -15 185 0
-61 62 63 -9 -10 -11 -13 -14 15 78 0
-61 62 63 -9 -10 -11 -13 -14 -15 157 0
-61 62 -63 9 10 11 13 14 15 160 0
-61 62 -63 9 10 11 13 14 -15 120 0
-61 62 -63 9 10 11 13 -14 15 98 0
-61 62 -63 9 10 11 13 -14 -15 161 0
-61 62 -63 9 10 11 -13 14 15 154 0
-61 62 -63 9 10 11 -13 14 -15 126 0
-61 62 -63 9 10 11 -13 -14 15 75 0
-61 62 -63 9 10 11 -13 -14 -15 99 0
-61 62 -63 9 10 -11 13 14 15 120 0
-61 62 -63 9 10 -11 13 14 -15 191 0
-61 62 -63 9 10 -11 13 -14 15 86 0
-61 62 -63 9 10 -11 13 -14 -15 123 0
-61 62 -63 9 10 -11 -13 14 15 185 0
-61 62 -63 9 10 -11 -13 14 -15 177 0
-61 62 -63 9 10 -11 -13 -14 15 76 0
-61 62 -63 9 10 -11 -13 -14 -15 78 0
-61 62 -63 9 -10 11 13 14 15 130 0
-61 62 -63 9 -10 11 13 14 -15 116 0
-61 62 -63 9 -10 11 13 -14 15 193 0
-61 62 -63 9 -10 11 13 -14 -15 191 0
-61 62 -63 9 -10 11 -13 14 15 162 0
-61 62 -63 9 -10 11 -13 14 -15 189 0
-61 62 -63 9 -10 11 -13 -14 15 195 0
-61 62 -63 9 -10 11 -13 -14 -15 162 0
-61 62 -63 9 -10 -11 13 14 15 180 0
-61 62 -63 9 -10 -11 13 14 -15 68 0
-61 62 -63 9 -10 -11 13 -14 15 79 0
-61 62 -63 9 -10 -11 13 -14 -15 167 0
-61 62 -63 9 -10 -11 -13 14 15 162 0
-61 62 -63 9 -10 -11 -13 14 -15 127 0
-61 62 -63 9 -10 -11 -13 -14 15 91 0
-61 62 -63 9 -10 -11 -13 -14 -15 87 0
-61 62 -63 -9 10 11 13 14 15 156 0
-61 62 -63 -9 10 11 13 14 -15 180 0
-61 62 -63 -9 10 11 13 -14 15 77 0
-61 62 -63 -9 10 11 13 -14 -15 168 0
-61 62 -63 -9 10 11 -13 14 15 180 0
-61 62 -63 -9 10 11 -13 14 -15 190 0
-61 62 -63 -9 10 11 -13 -14 15 118 0
-61 62 -63 -9 10 11 -13 -14 -15 169 0
-61 62 -63 -9 10 -11 13 14 15 161 0
-61 62 -63 -9 10 -11 13 14 -15 168 0
-61 62 -63 -9 10 -11 13 -14 15 101 0
-61 62 -63 -9 10 -11 13 -14 -15 171 0
-61 62 -63 -9 10 -11 -13 14 15 128 0
-61 62 -63 -9 10 -11 -13 14 -15 147 0
-61 62 -63 -9 10 -11 -13 -14 15 162 0
-61 62 -63 -9 10 -11 -13 -14 -15 181 0
-61 62 -63 -9 -10 11 13 14 15 83 0
-61 62 -63 -9 -10 11 13 14 -15 101 0
-61 62 -63 -9 -10 11 13 -14 15 140 0
-61 62 -63 -9 -10 11 13 -14 -15 86 0
-61 62 -63 -9 -10 11 -13 14 15 94 0
-61 62 -63 -9 -10 11 -13 14 -15 76 0
-61 62 -63 -9 -10 11 -13 -14 15 150 0
-61 62 -63 -9 -10 11 -13 -14 -15 155 0
-61 62 -63 -9 -10 -11 13 14 15 161 0
-61 62 -63 -9 -10 -11 13 14 -15 161 0
-61 62 -63 -9 -10 -11 13 -14 15 116 0
-61 62 -63 -9 -10 -11 13 -14 -15 180 0
-61 62 -63 -9 -10 -11 -13 14 15 114 0
-61 62 -63 -9 -10 -11 -13 14 -15 146 0
-61 62 -63 -9 -10 -11 -13 -14 15 78 0
-61 62 -63 -9 -10 -11 -13 -14 -15 157 0
-61 -62 63 9 10 11 13 14 15 160 0
-61 -62 63 9 10 11 13 14 -15 120 0
-61 -62 63 9 10 11 13 -14 15 98 0
-61 -62 63 9 10 11 13 -14 -15 161 0
-61 -62 63 9 10 11 -13 14 15 154 0
-61 -62 63 9 10 11 -13 14 -15 133 0
-61 -62 63 9 10 11 -13 -14 15 92 0
-61 -62 63 9 10 11 -13 -14 -15 110 0
-61 -62 63 9 10 -11 13 14 15 120 0
-61 -62 63 9 10 -11 13 14 -15 191 0
-61 -62 63 9 10 -11 13 -14 15 86 0
-61 -62 63 9 10 -11 13 -14 -15 123 0
-61 -62 63 9 10 -11 -13 14 15 185 0
-61 -62 63 9 10 -11 -13 14 -15 112 0
-61 -62 63 9 10 -11 -13 -14 15 111 0
-61 -62 63 9 10 -11 -13 -14 -15 164 0
-61 -62 63 9 -10 11 13 14 15 130 0
-61 -62 63 9 -10 11 13 14 -15 116 0
-61 -62 63 9 -10 11 13 -14 15 193 0
-61 -62 63 9 -10 11 13 -14 -15 191 0
-61 -62 63 9 -10 11 -13 14 15 162 0
-61 -62 63 9 -10 11 -13 14 -15 167 0
-61 -62 63 9 -10 11 -13 -14 15 190 0
-61 -62 63 9 -10 11 -13 -14 -15 178 0
-61 -62 63 9 -10 -11 13 14 15 180 0
-61 -62 63 9 -10 -11 13 14 -15 68 0
-61 -62 63 9 -10 -11 13 -14 15 79 0
-61 -62 63 9 -10 -11 13 -14 -15 167 0
-61 -62 63 9 -10 -11 -13 14 15 162 0
-61 -62 63 9 -10 -11 -13 14 -15 90 0
-61 -62 63 9 -10 -11 -13 -14 15 132 0
-61 -62 63 9 -10 -11 -13 -14 -15 179 0
-61 -62 63 -9 10 11 13 14 15 156 0
-61 -62 63 -9 10 11 13 14 -15 180 0
-61 -62 63 -9 10 11 13 -14 15 77 0
-61 -62 63 -9 10 11 13 -14 -15 168 0
-61 -62 63 -9 10 11 -13 14 15 180 0
-61 -62 63 -9 10 11 -13 14 -15 96 0
-61 -62 63 -9 10 11 -13 -14 15 187 0
-61 -62 63 -9 10 11 -13 -14 -15 197 0
-61 -62 63 -9 10 -11 13 14 15 161 0
-61 -62 63 -9 10 -11 13 14 -15 168 0
-61 -62 63 -9 10 -11 13 -14 15 101 0
-61 -62 63 -9 10 -11 13 -14 -15 171 0
-61 -62 63 -9 10 -11 -13 14 15 72 0
-61 -62 63 -9 10 -11 -13 14 -15 182 0
-61 -62 63 -9 10 -11 -13 -14 15 178 0
-61 -62 63 -9 10 -11 -13 -14 -15 181 0
-61 -62 63 -9 -10 11 13 14 15 83 0
-61 -62 63 -9 -10 11 13 14 -15 101 0
-61 -62 63 -9 -10 11 13 -14 15 140 0
-61 -62 63 -9 -10 11 13 -14 -15 86 0
-61 -62 63 -9 -10 11 -13 14 15 125 0
-61 -62 63 -9 -10 11 -13 14 -15 111 0
-61 -62 63 -9 -10 11 -13 -14 15 111 0
-61 -62 63 -9 -10 11 -13 -14 -15 155 0
-61 -62 63 -9 -10 -11 13 14 15 161 0
-61 -62 63 -9 -10 -11 13 14 -15 161 0
-61 -62 63 -9 -10 -11 13 -14 15 116 0
-61 -62 63 -9 -10 -11 13 -14 -15 180 0
-61 -62 63 -9 -10 -11 -13 14 15 176 0
-61 -62 63 -9 -10 -11 -13 14 -15 122 0
-61 -62 63 -9 -10 -11 -13 -14 15 85 0
-61 -62 63 -9 -10 -11 -13 -14 -15 157 0
-61 -62 -63 9 10 11 13 14 15 160 0
-61 -62 -63 9 10 11 13 14 -15 120 0
-61 -62 -63 9 10 11 13 -14 15 98 0
-61 -62 -63 9 10 11 13 -14 -15 161 0
-61 -62 -63 9 10 11 -13 14 15 154 0
-61 -62 -63 9 10 11 -13 14 -15 133 0
-61 -62 -63 9 10 11 -13 -14 15 97 0
-61 -62 -63 9 10 11 -13 -14 -15 80 0
-61 -62 -63 9 10 -11 13 14 15 120 0
-61 -62 -63 9 10 -11 13 14 -15 191 0
-61 -62 -63 9 10 -11 13 -14 15 86 0
-61 -62 -63 9 10 -11 13 -14 -15 123 0
-61 -62 -63 9 10 -11 -13 14 15 185 0
-61 -62 -63 9 10 -11 -13 14 -15 112 0
-61 -62 -63 9 10 -11 -13 -14 15 150 0
-61 -62 -63 9 10 -11 -13 -14 -15 119 0
-61 -62 -63 9 -10 11 13 14 15 130 0
-61 -62 -63 9 -10 11 13 14 -15 116 0
-61 -62 -63 9 -10 11 13 -14 15 193 0
-61 -62 -63 9 -10 11 13 -14 -15 191 0
-61 -62 -63 9 -10 11 -13 14 15 162 0
-61 -62 -63 9 -10 11 -13 14 -15 167 0
-61 -62 -63 9 -10 11 -13 -14 15 96 0
-61 -62 -63 9 -10 11 -13 -14 -15 199 0
-61 -62 -63 9 -10 -11 13 14 15 180 0
-61 -62 -63 9 -10 -11 13 14 -15 68 0
-61 -62 -63 9 -10 -11 13 -14 15 79 0
-61 -62 -63 9 -10 -11 13 -14 -15 167 0
-61 -62 -63 9 -10 -11 -13 14 15 162 0
-61 -62 -63 9 -10 -11 -13 14 -15 102 0
-61 -62 -63 9 -10 -11 -13 -14 15 152 0
-61 -62 -63 9 -10 -11 -13 -14 -15 121 0
-61 -62 -63 -9 10 11 13 14 15 156 0
-61 -62 -63 -9 10 11 13 14 -15 180 0
-61 -62 -63 -9 10 11 13 -14 15 77 0
-61 -62 -63 -9 10 11 13 -14 -15 168 0
-61 -62 -63 -9 10 11 -13 14 15 180 0
-61 -62 -63 -9 10 11 -13 14 -15 96 0
-61 -62 -63 -9 10 11 -13 -14 15 118 0
-61 -62 -63 -9 10 11 -13 -14 -15 173 0
-61 -62 -63 -9 10 -11 13 14 15 161 0
-61 -62 -63 -9 10 -11 13 14 -15 168 0
-61 -62 -63 -9 10 -11 13 -14 15 101 0
-61 -62 -63 -9 10 -11 13 -14 -15 171 0
-61 -62 -63 -9 10 -11 -13 14 15 72 0
-61 -62 -63 -9 10 -11 -13 14 -15 172 0
-61 -62 -63 -9 10 -11 -13 -14 15 199 0
-61 -62 -63 -9 10 -11 -13 -14 -15 95 0
-61 -62 -63 -9 -10 11 13 14 15 83 0
-61 -62 -63 -9 -10 11 13 14 -15 101 0
-61 -62 -63 -9 -10 11 13 -14 15 140 0
-61 -62 -63 -9 -10 11 13 -14 -15 86 0
-61 -62 -63 -9 -10 11 -13 14 15 125 0
-61 -62 -63 -9 -10 11 -13 14 -15 150 0
-61 -62 -63 -9 -10 11 -13 -14 15 76 0
-61 -62 -63 -9 -10 11 -13 -14 -15 129 0
-61 -62 -63 -9 -10 -11 13 14 15 161 0
-61 -62 -63 -9 -10 -11 13 14 -15 161 0
-61 -62 -63 -9 -10 -11 13 -14 15 116 0
-61 -62 -63 -9 -10 -11 13 -14 -15 180 0
-61 -62 -63 -9 -10 -11 -13 14 15 185 0
-61 -62 -63 -9 -10 -11 -13 14 -15 176 0
-61 -62 -63 -9 -10 -11 -13 -14 15 159 0
-61 -62 -63 -9 -10 -11 -13 -14 -15 81 0
